c This is a CNF SAT formula in the DIMACS CNF format,
c produced with the bc2cnf translator by Tommi Junttila;
c see http://users.ics.aalto.fi/tjunttil/circuits/index.html
c phi_Gamma <-> 1
c phi_T_feature_det <-> 1
c phi_T_transitions <-> 1
c phi_T_transitions_consistency <-> 1
c phi_T <-> 1
c phi_sim_leaves <-> 1
c phi_sim_transition <-> 1
c phi_sim <-> 1
c FORMULA <-> 1
c pi_1_9 <-> 2
c pi_0_9 <-> 15
c pi_1_8 <-> 34
c pi_0_8 <-> 40
c pi_1_7 <-> 60
c pi_0_7 <-> 71
c pi_1_6 <-> 86
c pi_0_6 <-> 90
c pi_1_4 <-> 103
c pi_1_5 <-> 103
c pi_0_4 <-> 107
c pi_0_5 <-> 107
c pi_1_3 <-> 120
c pi_0_3 <-> 126
c pi_1_2 <-> 143
c pi_0_2 <-> 145
c pi_1_1 <-> 158
c pi_0_1 <-> 159
c pi_1_0 <-> 175
c pi_0_0 <-> 176
c alp_approved_1_0 <-> 189
c alp_approved_1_1 <-> 189
c alp_approved_1_2 <-> 189
c alp_approved_0_3 <-> 189
c alp_approved_1_4 <-> 189
c alp_approved_1_5 <-> 189
c alp_approved_0_6 <-> 189
c alp_approved_0_7 <-> 189
c alp_approved_1_8 <-> 189
c alp_approved_1_9 <-> 189
c alp_approved_1_3 <-> 190
c alp_approved_1_6 <-> 190
c alp_approved_1_7 <-> 190
c approved_P100 <-> 190
c alp_approved_0_0 <-> 191
c alp_approved_0_1 <-> 191
c alp_approved_0_2 <-> 191
c alp_approved_0_4 <-> 191
c alp_approved_0_5 <-> 191
c alp_approved_0_8 <-> 191
c alp_approved_0_9 <-> 191
c approved_P0 <-> 191
c tau_1_3_approved_1 <-> 228
c tau_1_3_approved_0 <-> 229
c tau_1_2_approved_1 <-> 230
c tau_1_2_approved_0 <-> 231
c tau_1_1_approved_1 <-> 232
c tau_1_1_approved_0 <-> 233
c tau_1_0_approved_1 <-> 234
c tau_1_0_approved_0 <-> 235
c tau_0_3_approved_1 <-> 273
c tau_0_3_approved_0 <-> 274
c tau_0_3_1 <-> 275
c tau_0_2_approved_1 <-> 276
c tau_0_2_approved_0 <-> 277
c tau_0_2_1 <-> 278
c tau_0_1_approved_1 <-> 279
c tau_0_1_approved_0 <-> 280
c tau_0_1_1 <-> 281
c tau_0_0_approved_1 <-> 282
c tau_0_0_approved_0 <-> 283
c tau_0_0_1 <-> 284
c lam_1_credit_score <-> 298
c lam_1_dependents <-> 300
c lam_1_monthly_income <-> 302
c lam_1_age <-> 303
c lam_0_credit_score <-> 317
c lam_0_dependents <-> 319
c lam_0_monthly_income <-> 321
c lam_0_age <-> 322
p wcnf 322 907 11  
11 1 0
11 2 -3 0
11 2 -6 0
11 -2 6 3 0
11 -3 4 0
11 -3 298 0
11 3 -298 -4 0
11 -4 -230 0
11 -4 5 0
11 4 -5 230 0
11 5 231 0
11 5 -191 0
11 -5 191 -231 0
11 6 -7 0
11 6 -8 0
11 -6 8 7 0
11 -7 13 0
11 -7 300 0
11 7 -300 -13 0
11 8 -9 0
11 8 -12 0
11 -8 12 9 0
11 -9 10 0
11 -9 302 0
11 9 -302 -10 0
11 -10 -234 0
11 -10 11 0
11 10 -11 234 0
11 11 235 0
11 11 -191 0
11 -11 191 -235 0
11 -12 13 0
11 -12 303 0
11 12 -303 -13 0
11 -13 -232 0
11 -13 14 0
11 13 -14 232 0
11 14 233 0
11 14 -191 0
11 -14 191 -233 0
11 15 -16 0
11 15 -21 0
11 -15 21 16 0
1 15 0
11 -16 17 0
11 -16 317 0
11 16 -317 -17 0
11 -17 -276 0
11 -17 18 0
11 17 -18 276 0
11 -18 19 0
11 -18 20 0
11 18 -20 -19 0
11 19 277 0
11 19 -191 0
11 -19 191 -277 0
11 20 -2 0
11 20 278 0
11 -20 -278 2 0
11 21 -22 0
11 21 -23 0
11 -21 23 22 0
11 -22 30 0
11 -22 319 0
11 22 -319 -30 0
11 23 -24 0
11 23 -29 0
11 -23 29 24 0
11 -24 25 0
11 -24 321 0
11 24 -321 -25 0
11 -25 -282 0
11 -25 26 0
11 25 -26 282 0
11 -26 27 0
11 -26 28 0
11 26 -28 -27 0
11 27 283 0
11 27 -191 0
11 -27 191 -283 0
11 28 -2 0
11 28 284 0
11 -28 -284 2 0
11 -29 30 0
11 -29 322 0
11 29 -322 -30 0
11 -30 -279 0
11 -30 31 0
11 30 -31 279 0
11 -31 32 0
11 -31 33 0
11 31 -33 -32 0
11 32 280 0
11 32 -191 0
11 -32 191 -280 0
11 33 -2 0
11 33 281 0
11 -33 -281 2 0
11 34 -3 0
11 34 -35 0
11 -34 35 3 0
11 35 -7 0
11 35 -36 0
11 -35 36 7 0
11 36 -9 0
11 36 -37 0
11 -36 37 9 0
11 -37 38 0
11 -37 303 0
11 37 -303 -38 0
11 -38 -228 0
11 -38 39 0
11 38 -39 228 0
11 39 229 0
11 39 -191 0
11 -39 191 -229 0
11 40 -41 0
11 40 -45 0
11 -40 45 41 0
1 40 0
11 -41 42 0
11 -41 317 0
11 41 -317 -42 0
11 -42 -276 0
11 -42 43 0
11 42 -43 276 0
11 -43 19 0
11 -43 44 0
11 43 -44 -19 0
11 44 278 0
11 44 -34 0
11 -44 34 -278 0
11 45 -46 0
11 45 -50 0
11 -45 50 46 0
11 -46 47 0
11 -46 319 0
11 46 -319 -47 0
11 -47 -279 0
11 -47 48 0
11 47 -48 279 0
11 -48 32 0
11 -48 49 0
11 48 -49 -32 0
11 49 281 0
11 49 -34 0
11 -49 34 -281 0
11 50 -51 0
11 50 -55 0
11 -50 55 51 0
11 -51 52 0
11 -51 321 0
11 51 -321 -52 0
11 -52 -282 0
11 -52 53 0
11 52 -53 282 0
11 -53 27 0
11 -53 54 0
11 53 -54 -27 0
11 54 284 0
11 54 -34 0
11 -54 34 -284 0
11 -55 56 0
11 -55 322 0
11 55 -322 -56 0
11 -56 -273 0
11 -56 57 0
11 56 -57 273 0
11 -57 58 0
11 -57 59 0
11 57 -59 -58 0
11 58 274 0
11 58 -191 0
11 -58 191 -274 0
11 59 -34 0
11 59 275 0
11 -59 -275 34 0
11 60 -61 0
11 60 -62 0
11 -60 62 61 0
11 -61 69 0
11 -61 298 0
11 61 -298 -69 0
11 62 -63 0
11 62 -66 0
11 -62 66 63 0
11 -63 64 0
11 -63 300 0
11 63 -300 -64 0
11 -64 -235 0
11 -64 65 0
11 64 -65 235 0
11 65 234 0
11 65 -190 0
11 -65 190 -234 0
11 66 -67 0
11 66 -68 0
11 -66 68 67 0
11 -67 69 0
11 -67 302 0
11 67 -302 -69 0
11 -68 69 0
11 -68 303 0
11 68 -303 -69 0
11 -69 -233 0
11 -69 70 0
11 69 -70 233 0
11 70 232 0
11 70 -190 0
11 -70 190 -232 0
11 71 -72 0
11 71 -73 0
11 -71 73 72 0
1 71 0
11 -72 82 0
11 -72 317 0
11 72 -317 -82 0
11 73 -74 0
11 73 -79 0
11 -73 79 74 0
11 -74 75 0
11 -74 319 0
11 74 -319 -75 0
11 -75 76 0
11 -75 77 0
11 75 -77 -76 0
11 76 282 0
11 76 -190 0
11 -76 190 -282 0
11 -77 -283 0
11 -77 78 0
11 77 -78 283 0
11 78 284 0
11 78 -60 0
11 -78 60 -284 0
11 79 -80 0
11 79 -81 0
11 -79 81 80 0
11 -80 82 0
11 -80 321 0
11 80 -321 -82 0
11 -81 82 0
11 -81 322 0
11 81 -322 -82 0
11 -82 83 0
11 -82 84 0
11 82 -84 -83 0
11 83 279 0
11 83 -190 0
11 -83 190 -279 0
11 -84 -280 0
11 -84 85 0
11 84 -85 280 0
11 85 281 0
11 85 -60 0
11 -85 60 -281 0
11 86 -87 0
11 86 -88 0
11 -86 88 87 0
11 -87 64 0
11 -87 298 0
11 87 -298 -64 0
11 88 -66 0
11 88 -89 0
11 -88 89 66 0
11 -89 69 0
11 -89 300 0
11 89 -300 -69 0
11 90 -91 0
11 90 -95 0
11 -90 95 91 0
1 90 0
11 -91 92 0
11 -91 317 0
11 91 -317 -92 0
11 -92 76 0
11 -92 93 0
11 92 -93 -76 0
11 -93 -283 0
11 -93 94 0
11 93 -94 283 0
11 94 284 0
11 94 -86 0
11 -94 86 -284 0
11 95 -96 0
11 95 -97 0
11 -95 97 96 0
11 -96 100 0
11 -96 319 0
11 96 -319 -100 0
11 97 -98 0
11 97 -99 0
11 -97 99 98 0
11 -98 100 0
11 -98 321 0
11 98 -321 -100 0
11 -99 100 0
11 -99 322 0
11 99 -322 -100 0
11 -100 83 0
11 -100 101 0
11 100 -101 -83 0
11 -101 -280 0
11 -101 102 0
11 101 -102 280 0
11 102 281 0
11 102 -86 0
11 -102 86 -281 0
11 103 -104 0
11 103 -105 0
11 -103 105 104 0
11 -104 10 0
11 -104 298 0
11 104 -298 -10 0
11 105 -8 0
11 105 -106 0
11 -105 106 8 0
11 -106 10 0
11 -106 300 0
11 106 -300 -10 0
11 107 -108 0
11 107 -109 0
11 -107 109 108 0
1 107 0
11 -108 113 0
11 -108 317 0
11 108 -317 -113 0
11 109 -110 0
11 109 -111 0
11 -109 111 110 0
11 -110 113 0
11 -110 319 0
11 110 -319 -113 0
11 111 -112 0
11 111 -116 0
11 -111 116 112 0
11 -112 113 0
11 -112 321 0
11 112 -321 -113 0
11 -113 -282 0
11 -113 114 0
11 113 -114 282 0
11 -114 27 0
11 -114 115 0
11 114 -115 -27 0
11 115 284 0
11 115 -103 0
11 -115 103 -284 0
11 -116 117 0
11 -116 322 0
11 116 -322 -117 0
11 -117 -279 0
11 -117 118 0
11 117 -118 279 0
11 -118 32 0
11 -118 119 0
11 118 -119 -32 0
11 119 281 0
11 119 -103 0
11 -119 103 -281 0
11 120 -87 0
11 120 -121 0
11 -120 121 87 0
11 121 -89 0
11 121 -122 0
11 -121 122 89 0
11 122 -67 0
11 122 -123 0
11 -122 123 67 0
11 -123 124 0
11 -123 303 0
11 123 -303 -124 0
11 -124 -229 0
11 -124 125 0
11 124 -125 229 0
11 125 228 0
11 125 -190 0
11 -125 190 -228 0
11 126 -127 0
11 126 -131 0
11 -126 131 127 0
1 126 0
11 -127 128 0
11 -127 317 0
11 127 -317 -128 0
11 -128 76 0
11 -128 129 0
11 128 -129 -76 0
11 -129 -283 0
11 -129 130 0
11 129 -130 283 0
11 130 284 0
11 130 -120 0
11 -130 120 -284 0
11 131 -132 0
11 131 -133 0
11 -131 133 132 0
11 -132 135 0
11 -132 319 0
11 132 -319 -135 0
11 133 -134 0
11 133 -138 0
11 -133 138 134 0
11 -134 135 0
11 -134 321 0
11 134 -321 -135 0
11 -135 83 0
11 -135 136 0
11 135 -136 -83 0
11 -136 -280 0
11 -136 137 0
11 136 -137 280 0
11 137 281 0
11 137 -120 0
11 -137 120 -281 0
11 -138 139 0
11 -138 322 0
11 138 -322 -139 0
11 -139 140 0
11 -139 141 0
11 139 -141 -140 0
11 140 273 0
11 140 -190 0
11 -140 190 -273 0
11 -141 -274 0
11 -141 142 0
11 141 -142 274 0
11 142 275 0
11 142 -120 0
11 -142 120 -275 0
11 143 -105 0
11 143 -144 0
11 -143 144 105 0
11 -144 13 0
11 -144 298 0
11 144 -298 -13 0
11 145 -146 0
11 145 -147 0
11 -145 147 146 0
1 145 0
11 -146 155 0
11 -146 317 0
11 146 -317 -155 0
11 147 -148 0
11 147 -149 0
11 -147 149 148 0
11 -148 151 0
11 -148 319 0
11 148 -319 -151 0
11 149 -150 0
11 149 -154 0
11 -149 154 150 0
11 -150 151 0
11 -150 321 0
11 150 -321 -151 0
11 -151 -282 0
11 -151 152 0
11 151 -152 282 0
11 -152 27 0
11 -152 153 0
11 152 -153 -27 0
11 153 284 0
11 153 -143 0
11 -153 143 -284 0
11 -154 155 0
11 -154 322 0
11 154 -322 -155 0
11 -155 -279 0
11 -155 156 0
11 155 -156 279 0
11 -156 32 0
11 -156 157 0
11 156 -157 -32 0
11 157 281 0
11 157 -143 0
11 -157 143 -281 0
11 158 -35 0
11 158 -144 0
11 -158 144 35 0
11 159 -160 0
11 159 -161 0
11 -159 161 160 0
1 159 0
11 -160 163 0
11 -160 317 0
11 160 -317 -163 0
11 161 -162 0
11 161 -166 0
11 -161 166 162 0
11 -162 163 0
11 -162 319 0
11 162 -319 -163 0
11 -163 -279 0
11 -163 164 0
11 163 -164 279 0
11 -164 32 0
11 -164 165 0
11 164 -165 -32 0
11 165 281 0
11 165 -158 0
11 -165 158 -281 0
11 166 -167 0
11 166 -171 0
11 -166 171 167 0
11 -167 168 0
11 -167 321 0
11 167 -321 -168 0
11 -168 -282 0
11 -168 169 0
11 168 -169 282 0
11 -169 27 0
11 -169 170 0
11 169 -170 -27 0
11 170 284 0
11 170 -158 0
11 -170 158 -284 0
11 -171 172 0
11 -171 322 0
11 171 -322 -172 0
11 -172 -273 0
11 -172 173 0
11 172 -173 273 0
11 -173 58 0
11 -173 174 0
11 173 -174 -58 0
11 174 275 0
11 174 -158 0
11 -174 158 -275 0
11 175 -6 0
11 175 -144 0
11 -175 144 6 0
11 176 -177 0
11 176 -178 0
11 -176 178 177 0
1 176 0
11 -177 186 0
11 -177 317 0
11 177 -317 -186 0
11 178 -179 0
11 178 -180 0
11 -178 180 179 0
11 -179 186 0
11 -179 319 0
11 179 -319 -186 0
11 180 -181 0
11 180 -185 0
11 -180 185 181 0
11 -181 182 0
11 -181 321 0
11 181 -321 -182 0
11 -182 -282 0
11 -182 183 0
11 182 -183 282 0
11 -183 27 0
11 -183 184 0
11 183 -184 -27 0
11 184 284 0
11 184 -175 0
11 -184 175 -284 0
11 -185 186 0
11 -185 322 0
11 185 -322 -186 0
11 -186 -279 0
11 -186 187 0
11 186 -187 279 0
11 -187 32 0
11 -187 188 0
11 187 -188 -32 0
11 188 281 0
11 188 -175 0
11 -188 175 -281 0
11 -189 0
11 192 298 0
11 192 -193 0
11 -192 193 -298 0
11 192 0
11 -193 -228 0
11 -193 -229 0
11 193 229 228 0
11 194 300 0
11 194 -195 0
11 -194 195 -300 0
11 194 0
11 -195 -228 0
11 -195 196 0
11 195 -196 228 0
11 -196 -229 0
11 -196 197 0
11 196 -197 229 0
11 -197 -230 0
11 -197 -231 0
11 197 231 230 0
11 198 -195 0
11 198 302 0
11 -198 -302 195 0
11 198 0
11 199 317 0
11 199 -200 0
11 -199 200 -317 0
11 199 0
11 -200 -273 0
11 -200 201 0
11 200 -201 273 0
11 -201 -274 0
11 -201 -275 0
11 201 275 274 0
11 202 319 0
11 202 -203 0
11 -202 203 -319 0
11 202 0
11 -203 -273 0
11 -203 204 0
11 203 -204 273 0
11 -204 -274 0
11 -204 205 0
11 204 -205 274 0
11 -205 -275 0
11 -205 206 0
11 205 -206 275 0
11 -206 -276 0
11 -206 207 0
11 206 -207 276 0
11 -207 -277 0
11 -207 -278 0
11 207 278 277 0
11 208 -203 0
11 208 321 0
11 -208 -321 203 0
11 208 0
11 209 298 0
11 209 -210 0
11 -209 210 -298 0
11 209 0
11 -210 211 0
11 -210 214 0
11 210 -214 -211 0
11 211 -212 0
11 211 -213 0
11 -211 213 212 0
11 -212 -231 0
11 -212 230 0
11 212 -230 231 0
11 -213 -230 0
11 -213 231 0
11 213 -231 230 0
11 -214 215 0
11 -214 218 0
11 214 -218 -215 0
11 215 -216 0
11 215 -217 0
11 -215 217 216 0
11 -216 -233 0
11 -216 232 0
11 216 -232 233 0
11 -217 -232 0
11 -217 233 0
11 217 -233 232 0
11 218 -219 0
11 218 -220 0
11 -218 220 219 0
11 -219 -235 0
11 -219 234 0
11 219 -234 235 0
11 -220 -234 0
11 -220 235 0
11 220 -235 234 0
11 221 300 0
11 221 -214 0
11 -221 214 -300 0
11 221 0
11 222 302 0
11 222 -214 0
11 -222 214 -302 0
11 222 0
11 223 303 0
11 223 -224 0
11 -223 224 -303 0
11 223 0
11 -224 210 0
11 -224 225 0
11 224 -225 -210 0
11 225 -226 0
11 225 -227 0
11 -225 227 226 0
11 -226 -229 0
11 -226 228 0
11 226 -228 229 0
11 -227 -228 0
11 -227 229 0
11 227 -229 228 0
11 236 317 0
11 236 -237 0
11 -236 237 -317 0
11 236 0
11 -237 238 0
11 -237 245 0
11 237 -245 -238 0
11 238 -239 0
11 238 -243 0
11 -238 243 239 0
11 239 -240 0
11 239 -241 0
11 -239 241 240 0
11 -240 207 0
11 -240 276 0
11 240 -276 -207 0
11 -241 242 0
11 -241 277 0
11 241 -277 -242 0
11 -242 -276 0
11 -242 -278 0
11 242 278 276 0
11 -243 244 0
11 -243 278 0
11 243 -278 -244 0
11 -244 -276 0
11 -244 -277 0
11 244 277 276 0
11 -245 246 0
11 -245 254 0
11 245 -254 -246 0
11 246 -247 0
11 246 -252 0
11 -246 252 247 0
11 247 -248 0
11 247 -250 0
11 -247 250 248 0
11 -248 249 0
11 -248 279 0
11 248 -279 -249 0
11 -249 -280 0
11 -249 -281 0
11 249 281 280 0
11 -250 251 0
11 -250 280 0
11 250 -280 -251 0
11 -251 -279 0
11 -251 -281 0
11 251 281 279 0
11 -252 253 0
11 -252 281 0
11 252 -281 -253 0
11 -253 -279 0
11 -253 -280 0
11 253 280 279 0
11 254 -255 0
11 254 -260 0
11 -254 260 255 0
11 255 -256 0
11 255 -258 0
11 -255 258 256 0
11 -256 257 0
11 -256 282 0
11 256 -282 -257 0
11 -257 -283 0
11 -257 -284 0
11 257 284 283 0
11 -258 259 0
11 -258 283 0
11 258 -283 -259 0
11 -259 -282 0
11 -259 -284 0
11 259 284 282 0
11 -260 261 0
11 -260 284 0
11 260 -284 -261 0
11 -261 -282 0
11 -261 -283 0
11 261 283 282 0
11 262 319 0
11 262 -245 0
11 -262 245 -319 0
11 262 0
11 263 321 0
11 263 -245 0
11 -263 245 -321 0
11 263 0
11 264 322 0
11 264 -265 0
11 -264 265 -322 0
11 264 0
11 -265 237 0
11 -265 266 0
11 265 -266 -237 0
11 266 -267 0
11 266 -271 0
11 -266 271 267 0
11 267 -268 0
11 267 -269 0
11 -267 269 268 0
11 -268 201 0
11 -268 273 0
11 268 -273 -201 0
11 -269 270 0
11 -269 274 0
11 269 -274 -270 0
11 -270 -273 0
11 -270 -275 0
11 270 275 273 0
11 -271 272 0
11 -271 275 0
11 271 -275 -272 0
11 -272 -273 0
11 -272 -274 0
11 272 274 273 0
11 285 -286 0
11 285 -289 0
11 -285 289 286 0
11 285 0
11 -286 -300 0
11 -286 287 0
11 286 -287 300 0
11 -287 -302 0
11 -287 288 0
11 287 -288 302 0
11 -288 -303 0
11 -288 298 0
11 288 -298 303 0
11 289 -290 0
11 289 -293 0
11 -289 293 290 0
11 -290 -298 0
11 -290 291 0
11 290 -291 298 0
11 -291 -302 0
11 -291 292 0
11 291 -292 302 0
11 -292 -303 0
11 -292 300 0
11 292 -300 303 0
11 293 -294 0
11 293 -297 0
11 -293 297 294 0
11 -294 -298 0
11 -294 295 0
11 294 -295 298 0
11 -295 -300 0
11 -295 296 0
11 295 -296 300 0
11 -296 -303 0
11 -296 302 0
11 296 -302 303 0
11 -297 -298 0
11 -297 299 0
11 297 -299 298 0
11 -299 -300 0
11 -299 301 0
11 299 -301 300 0
11 -301 -302 0
11 -301 303 0
11 301 -303 302 0
11 304 -305 0
11 304 -308 0
11 -304 308 305 0
11 304 0
11 -305 -319 0
11 -305 306 0
11 305 -306 319 0
11 -306 -321 0
11 -306 307 0
11 306 -307 321 0
11 -307 -322 0
11 -307 317 0
11 307 -317 322 0
11 308 -309 0
11 308 -312 0
11 -308 312 309 0
11 -309 -317 0
11 -309 310 0
11 309 -310 317 0
11 -310 -321 0
11 -310 311 0
11 310 -311 321 0
11 -311 -322 0
11 -311 319 0
11 311 -319 322 0
11 312 -313 0
11 312 -316 0
11 -312 316 313 0
11 -313 -317 0
11 -313 314 0
11 313 -314 317 0
11 -314 -319 0
11 -314 315 0
11 314 -315 319 0
11 -315 -322 0
11 -315 321 0
11 315 -321 322 0
11 -316 -317 0
11 -316 318 0
11 316 -318 317 0
11 -318 -319 0
11 -318 320 0
11 318 -320 319 0
11 -320 -321 0
11 -320 322 0
11 320 -322 321 0
